25
    1    17    17
    2    14    14
    3    18    18
    4    10    10
    5    12    12
    6     4     4
    7    17    17
    8    16    16
    9     2     2
   10    13    13
   11     7     7
   12    17    17
   13    11    11
   14     1     1
   15     1     1
   16    19    19
   17    19    19
   18     2     2
   19    12    12
   20     2     2
   21     1     1
   22    15    15
   23     5     5
   24    19    19
   25    14    14
89
